18	1

8	

0	0	5	2	3	4	5	6	
2	5	1	17	
2	1	2	7	8	
6	2	3	9	13	14	
4	5	2	10	12	
4	1	1	11	
5	2	1	17	
0	0	3	9	13	14	
3	2	2	10	12	
3	3	1	18	
8	3	1	18	
1	2	2	15	16	
5	4	2	15	16	
1	2	1	17	
0	0	1	17	
5	3	1	18	
8	2	1	18	
0	0	0	
